NAME pollination_srl_ilp
* Max problem is converted into Min one
ROWS
 N  OBJ
 L  constraint1_4340
 L  constraint2_4340
 L  constraint2_4341
 L  constraint2_4342
 L  constraint2_4343
COLUMNS
    MARKER    'MARKER'                 'INTORG'
    Z_434_0_0  OBJ       -2.0134613965454689e-04
    Z_434_0_0  constraint1_4340  1
    Z_434_0_0  constraint2_4340  1
    Z_434_0_1  OBJ       -2.4196361690517502e-03
    Z_434_0_1  constraint1_4340  1
    Z_434_0_1  constraint2_4341  1
    Z_434_0_2  OBJ       -7.4103067336976802e-01
    Z_434_0_2  constraint1_4340  1
    Z_434_0_2  constraint2_4342  1
    Z_434_0_3  OBJ       -3.8377909523883377e-03
    Z_434_0_3  constraint1_4340  1
    Z_434_0_3  constraint2_4343  1
    Z_434_0_4  OBJ       -1.5251055336913735e-01
    Z_434_0_4  constraint1_4340  1
    MARKER    'MARKER'                 'INTEND'
RHS
    RHS1      constraint1_4340  1
    RHS1      constraint2_4340  1
    RHS1      constraint2_4341  1
    RHS1      constraint2_4342  1
    RHS1      constraint2_4343  1
BOUNDS
 UP BND1      Z_434_0_0  1
 UP BND1      Z_434_0_1  1
 UP BND1      Z_434_0_2  1
 UP BND1      Z_434_0_3  1
 UP BND1      Z_434_0_4  1
ENDATA
